p cnf 324 1
324 0
w 1 0.210249
w 2 1 1
w 2 -1 0
w 3 2 0.221653
w 3 -2 0.241294
w 4 3 0.424024
w 4 -3 0.525515
w 5 4 0
w 5 -4 1
w 6 5 0
w 6 -5 1
w 7 6 0.965821
w 7 -6 0.972886
w 8 7 0.693069
w 8 -7 0.01238
w 9 8 0.793165
w 9 -8 0.152583
w 10 9 0
w 10 -9 1
w 11 10 0.73582
w 11 -10 0.156792
w 12 11 0.806971
w 12 -11 0.110098
w 13 12 0.0172199
w 13 -12 0.234819
w 14 13 0
w 14 -13 1
w 15 14 0
w 15 -14 1
w 16 15 1
w 16 -15 0
w 17 16 0.476934
w 17 -16 0.268106
w 18 17 0.162641
w 18 -17 0.813999
w 19 1 0.135527
w 19 -1 0.734687
w 20 19 2 0
w 20 19 -2 1
w 20 -19 2 1
w 20 -19 -2 1
w 21 20 3 0
w 21 20 -3 1
w 21 -20 3 1
w 21 -20 -3 1
w 22 21 4 0.995556
w 22 21 -4 0.0836361
w 22 -21 4 0.132738
w 22 -21 -4 0.0127763
w 23 22 5 1
w 23 22 -5 0
w 23 -22 5 1
w 23 -22 -5 1
w 24 23 6 0.655423
w 24 23 -6 0.241414
w 24 -23 6 0.257586
w 24 -23 -6 0.923529
w 25 24 7 0
w 25 24 -7 1
w 25 -24 7 1
w 25 -24 -7 1
w 26 25 8 1
w 26 25 -8 1
w 26 -25 8 0
w 26 -25 -8 1
w 27 26 9 1
w 27 26 -9 1
w 27 -26 9 0
w 27 -26 -9 0
w 28 27 10 0
w 28 27 -10 1
w 28 -27 10 0
w 28 -27 -10 1
w 29 28 11 1
w 29 28 -11 0
w 29 -28 11 1
w 29 -28 -11 0
w 30 29 12 0
w 30 29 -12 1
w 30 -29 12 0
w 30 -29 -12 1
w 31 30 13 0
w 31 30 -13 1
w 31 -30 13 0
w 31 -30 -13 1
w 32 31 14 0
w 32 31 -14 1
w 32 -31 14 1
w 32 -31 -14 0
w 33 32 15 1
w 33 32 -15 0
w 33 -32 15 1
w 33 -32 -15 1
w 34 33 16 0.272036
w 34 33 -16 0.180214
w 34 -33 16 0.0799804
w 34 -33 -16 0.782683
w 35 34 17 0.468723
w 35 34 -17 0.611786
w 35 -34 17 0.57343
w 35 -34 -17 0.502003
w 36 35 18 1
w 36 35 -18 1
w 36 -35 18 0
w 36 -35 -18 1
w 37 19 1
w 37 -19 0
w 38 37 20 0.879196
w 38 37 -20 0.578757
w 38 -37 20 0.189554
w 38 -37 -20 0.926695
w 39 38 21 0.944379
w 39 38 -21 0.677853
w 39 -38 21 0.103262
w 39 -38 -21 0.335931
w 40 39 22 0
w 40 39 -22 1
w 40 -39 22 1
w 40 -39 -22 1
w 41 40 23 1
w 41 40 -23 1
w 41 -40 23 0
w 41 -40 -23 1
w 42 41 24 0.847461
w 42 41 -24 0.679972
w 42 -41 24 0.181588
w 42 -41 -24 0.0632765
w 43 42 25 1
w 43 42 -25 1
w 43 -42 25 0
w 43 -42 -25 1
w 44 43 26 0
w 44 43 -26 1
w 44 -43 26 1
w 44 -43 -26 1
w 45 44 27 0.747031
w 45 44 -27 0.654399
w 45 -44 27 0.368718
w 45 -44 -27 0.850294
w 46 45 28 0.801881
w 46 45 -28 0.277161
w 46 -45 28 0.171286
w 46 -45 -28 0.934518
w 47 46 29 1
w 47 46 -29 0
w 47 -46 29 0
w 47 -46 -29 1
w 48 47 30 0
w 48 47 -30 1
w 48 -47 30 0
w 48 -47 -30 0
w 49 48 31 0.508104
w 49 48 -31 0.9776
w 49 -48 31 0.309235
w 49 -48 -31 0.238806
w 50 49 32 0.506028
w 50 49 -32 0.759271
w 50 -49 32 0.626744
w 50 -49 -32 0.281578
w 51 50 33 0
w 51 50 -33 0
w 51 -50 33 0
w 51 -50 -33 1
w 52 51 34 0.114019
w 52 51 -34 0.488208
w 52 -51 34 0.156064
w 52 -51 -34 0.285305
w 53 52 35 1
w 53 52 -35 1
w 53 -52 35 0
w 53 -52 -35 1
w 54 53 36 0.0240078
w 54 53 -36 0.481502
w 54 -53 36 0.47695
w 54 -53 -36 0.0578915
w 55 37 0.247641
w 55 -37 0.565996
w 56 55 38 0.556875
w 56 55 -38 0.804802
w 56 -55 38 0.801754
w 56 -55 -38 0.0629031
w 57 56 39 0.428498
w 57 56 -39 0.344481
w 57 -56 39 0.0333639
w 57 -56 -39 0.746106
w 58 57 40 1
w 58 57 -40 1
w 58 -57 40 0
w 58 -57 -40 1
w 59 58 41 0.408057
w 59 58 -41 0.556377
w 59 -58 41 0.343368
w 59 -58 -41 0.972164
w 60 59 42 0
w 60 59 -42 0
w 60 -59 42 0
w 60 -59 -42 1
w 61 60 43 0.0953636
w 61 60 -43 0.598259
w 61 -60 43 0.960086
w 61 -60 -43 0.661359
w 62 61 44 0.516962
w 62 61 -44 0.466161
w 62 -61 44 0.339193
w 62 -61 -44 0.579865
w 63 62 45 1
w 63 62 -45 1
w 63 -62 45 0
w 63 -62 -45 1
w 64 63 46 1
w 64 63 -46 1
w 64 -63 46 1
w 64 -63 -46 0
w 65 64 47 0.957487
w 65 64 -47 0.0481013
w 65 -64 47 0.21024
w 65 -64 -47 0.929651
w 66 65 48 0.223704
w 66 65 -48 0.0848277
w 66 -65 48 0.749557
w 66 -65 -48 0.261176
w 67 66 49 0.462002
w 67 66 -49 0.35654
w 67 -66 49 0.319765
w 67 -66 -49 0.422088
w 68 67 50 0
w 68 67 -50 1
w 68 -67 50 0
w 68 -67 -50 1
w 69 68 51 0.514295
w 69 68 -51 0.964087
w 69 -68 51 0.443261
w 69 -68 -51 0.577894
w 70 69 52 1
w 70 69 -52 0
w 70 -69 52 0
w 70 -69 -52 0
w 71 70 53 1
w 71 70 -53 1
w 71 -70 53 1
w 71 -70 -53 0
w 72 71 54 0.72493
w 72 71 -54 0.262093
w 72 -71 54 0.601989
w 72 -71 -54 0.986106
w 73 55 0.0639914
w 73 -55 0.342646
w 74 73 56 0
w 74 73 -56 0
w 74 -73 56 0
w 74 -73 -56 1
w 75 74 57 0.356966
w 75 74 -57 0.944045
w 75 -74 57 0.358901
w 75 -74 -57 0.321053
w 76 75 58 0
w 76 75 -58 1
w 76 -75 58 0
w 76 -75 -58 0
w 77 76 59 0
w 77 76 -59 0
w 77 -76 59 0
w 77 -76 -59 1
w 78 77 60 1
w 78 77 -60 0
w 78 -77 60 0
w 78 -77 -60 0
w 79 78 61 0.088702
w 79 78 -61 0.882394
w 79 -78 61 0.0689444
w 79 -78 -61 0.392067
w 80 79 62 1
w 80 79 -62 0
w 80 -79 62 0
w 80 -79 -62 1
w 81 80 63 0.737649
w 81 80 -63 0.632996
w 81 -80 63 0.230654
w 81 -80 -63 0.124954
w 82 81 64 0.0295903
w 82 81 -64 0.252956
w 82 -81 64 0.305131
w 82 -81 -64 0.252641
w 83 82 65 0.330741
w 83 82 -65 0.766678
w 83 -82 65 0.336828
w 83 -82 -65 0.694723
w 84 83 66 0.179837
w 84 83 -66 0.911136
w 84 -83 66 0.522133
w 84 -83 -66 0.284939
w 85 84 67 0.248431
w 85 84 -67 0.373642
w 85 -84 67 0.611934
w 85 -84 -67 0.317376
w 86 85 68 0.980408
w 86 85 -68 0.746865
w 86 -85 68 0.318344
w 86 -85 -68 0.774012
w 87 86 69 0
w 87 86 -69 1
w 87 -86 69 0
w 87 -86 -69 0
w 88 87 70 0.223746
w 88 87 -70 0.488189
w 88 -87 70 0.88957
w 88 -87 -70 0.528877
w 89 88 71 0.560655
w 89 88 -71 0.859618
w 89 -88 71 0.507508
w 89 -88 -71 0.897483
w 90 89 72 0.289448
w 90 89 -72 0.0773204
w 90 -89 72 0.465477
w 90 -89 -72 0.81158
w 91 73 0
w 91 -73 1
w 92 91 74 1
w 92 91 -74 0
w 92 -91 74 0
w 92 -91 -74 1
w 93 92 75 0.124252
w 93 92 -75 0.819954
w 93 -92 75 0.561371
w 93 -92 -75 0.145212
w 94 93 76 1
w 94 93 -76 1
w 94 -93 76 0
w 94 -93 -76 1
w 95 94 77 0
w 95 94 -77 0
w 95 -94 77 1
w 95 -94 -77 1
w 96 95 78 1
w 96 95 -78 1
w 96 -95 78 0
w 96 -95 -78 1
w 97 96 79 1
w 97 96 -79 0
w 97 -96 79 1
w 97 -96 -79 1
w 98 97 80 0
w 98 97 -80 1
w 98 -97 80 0
w 98 -97 -80 0
w 99 98 81 0
w 99 98 -81 0
w 99 -98 81 1
w 99 -98 -81 1
w 100 99 82 0.854955
w 100 99 -82 0.850083
w 100 -99 82 0.108796
w 100 -99 -82 0.564602
w 101 100 83 0.103482
w 101 100 -83 0.163818
w 101 -100 83 0.424787
w 101 -100 -83 0.838998
w 102 101 84 1
w 102 101 -84 1
w 102 -101 84 1
w 102 -101 -84 0
w 103 102 85 0.515721
w 103 102 -85 0.233171
w 103 -102 85 0.958545
w 103 -102 -85 0.012657
w 104 103 86 0.362608
w 104 103 -86 0.245494
w 104 -103 86 0.292607
w 104 -103 -86 0.144059
w 105 104 87 0.51316
w 105 104 -87 0.0497621
w 105 -104 87 0.534341
w 105 -104 -87 0.295083
w 106 105 88 0
w 106 105 -88 1
w 106 -105 88 0
w 106 -105 -88 0
w 107 106 89 0.348917
w 107 106 -89 0.878458
w 107 -106 89 0.248543
w 107 -106 -89 0.187915
w 108 107 90 0
w 108 107 -90 0
w 108 -107 90 1
w 108 -107 -90 0
w 109 91 0.0989152
w 109 -91 0.119854
w 110 109 92 0.111572
w 110 109 -92 0.979268
w 110 -109 92 0.205583
w 110 -109 -92 0.357066
w 111 110 93 1
w 111 110 -93 0
w 111 -110 93 1
w 111 -110 -93 1
w 112 111 94 0
w 112 111 -94 1
w 112 -111 94 1
w 112 -111 -94 0
w 113 112 95 0
w 113 112 -95 1
w 113 -112 95 0
w 113 -112 -95 0
w 114 113 96 0.790256
w 114 113 -96 0.0254007
w 114 -113 96 0.607878
w 114 -113 -96 0.0601929
w 115 114 97 0.49456
w 115 114 -97 0.944622
w 115 -114 97 0.70751
w 115 -114 -97 0.614414
w 116 115 98 0.819082
w 116 115 -98 0.593682
w 116 -115 98 0.993179
w 116 -115 -98 0.176148
w 117 116 99 0.342821
w 117 116 -99 0.513155
w 117 -116 99 0.650592
w 117 -116 -99 0.742225
w 118 117 100 1
w 118 117 -100 1
w 118 -117 100 1
w 118 -117 -100 0
w 119 118 101 0.645915
w 119 118 -101 0.90566
w 119 -118 101 0.967743
w 119 -118 -101 0.248257
w 120 119 102 0.490882
w 120 119 -102 0.0385129
w 120 -119 102 0.754313
w 120 -119 -102 0.0987601
w 121 120 103 1
w 121 120 -103 1
w 121 -120 103 0
w 121 -120 -103 1
w 122 121 104 1
w 122 121 -104 0
w 122 -121 104 1
w 122 -121 -104 0
w 123 122 105 0
w 123 122 -105 1
w 123 -122 105 1
w 123 -122 -105 0
w 124 123 106 0.963307
w 124 123 -106 0.0482744
w 124 -123 106 0.151455
w 124 -123 -106 0.355798
w 125 124 107 1
w 125 124 -107 0
w 125 -124 107 1
w 125 -124 -107 0
w 126 125 108 0
w 126 125 -108 0
w 126 -125 108 0
w 126 -125 -108 1
w 127 109 0
w 127 -109 1
w 128 127 110 0.995308
w 128 127 -110 0.430517
w 128 -127 110 0.831349
w 128 -127 -110 0.203042
w 129 128 111 1
w 129 128 -111 0
w 129 -128 111 0
w 129 -128 -111 1
w 130 129 112 0.252471
w 130 129 -112 0.365299
w 130 -129 112 0.988997
w 130 -129 -112 0.161621
w 131 130 113 1
w 131 130 -113 0
w 131 -130 113 1
w 131 -130 -113 1
w 132 131 114 1
w 132 131 -114 0
w 132 -131 114 1
w 132 -131 -114 1
w 133 132 115 1
w 133 132 -115 0
w 133 -132 115 1
w 133 -132 -115 1
w 134 133 116 0.670544
w 134 133 -116 0.0422778
w 134 -133 116 0.595226
w 134 -133 -116 0.873587
w 135 134 117 0
w 135 134 -117 1
w 135 -134 117 0
w 135 -134 -117 1
w 136 135 118 0.641738
w 136 135 -118 0.467868
w 136 -135 118 0.538475
w 136 -135 -118 0.803359
w 137 136 119 0.575746
w 137 136 -119 0.116436
w 137 -136 119 0.480877
w 137 -136 -119 0.622157
w 138 137 120 1
w 138 137 -120 0
w 138 -137 120 0
w 138 -137 -120 0
w 139 138 121 0
w 139 138 -121 1
w 139 -138 121 0
w 139 -138 -121 1
w 140 139 122 0.955109
w 140 139 -122 0.863167
w 140 -139 122 0.981692
w 140 -139 -122 0.550335
w 141 140 123 0.285412
w 141 140 -123 0.866409
w 141 -140 123 0.614799
w 141 -140 -123 0.674679
w 142 141 124 0.164276
w 142 141 -124 0.316416
w 142 -141 124 0.436846
w 142 -141 -124 0.702751
w 143 142 125 0
w 143 142 -125 1
w 143 -142 125 1
w 143 -142 -125 1
w 144 143 126 0.510325
w 144 143 -126 0.881191
w 144 -143 126 0.484021
w 144 -143 -126 0.754462
w 145 127 0.672309
w 145 -127 0.271847
w 146 145 128 0
w 146 145 -128 1
w 146 -145 128 1
w 146 -145 -128 0
w 147 146 129 1
w 147 146 -129 0
w 147 -146 129 0
w 147 -146 -129 0
w 148 147 130 0
w 148 147 -130 1
w 148 -147 130 1
w 148 -147 -130 0
w 149 148 131 0.64122
w 149 148 -131 0.546215
w 149 -148 131 0.629316
w 149 -148 -131 0.87454
w 150 149 132 0.865527
w 150 149 -132 0.588736
w 150 -149 132 0.725367
w 150 -149 -132 0.375852
w 151 150 133 0
w 151 150 -133 0
w 151 -150 133 1
w 151 -150 -133 0
w 152 151 134 0
w 152 151 -134 0
w 152 -151 134 1
w 152 -151 -134 0
w 153 152 135 0.194268
w 153 152 -135 0.250501
w 153 -152 135 0.932876
w 153 -152 -135 0.258657
w 154 153 136 0.168271
w 154 153 -136 0.937846
w 154 -153 136 0.96207
w 154 -153 -136 0.372644
w 155 154 137 0.47161
w 155 154 -137 0.0138643
w 155 -154 137 0.327526
w 155 -154 -137 0.100926
w 156 155 138 0.152238
w 156 155 -138 0.966453
w 156 -155 138 0.47714
w 156 -155 -138 0.877605
w 157 156 139 1
w 157 156 -139 1
w 157 -156 139 0
w 157 -156 -139 0
w 158 157 140 0.87478
w 158 157 -140 0.167394
w 158 -157 140 0.713929
w 158 -157 -140 0.741411
w 159 158 141 0
w 159 158 -141 1
w 159 -158 141 1
w 159 -158 -141 1
w 160 159 142 1
w 160 159 -142 0
w 160 -159 142 0
w 160 -159 -142 1
w 161 160 143 0.63799
w 161 160 -143 0.765473
w 161 -160 143 0.241018
w 161 -160 -143 0.738916
w 162 161 144 0.393256
w 162 161 -144 0.705369
w 162 -161 144 0.131017
w 162 -161 -144 0.270861
w 163 145 1
w 163 -145 0
w 164 163 146 0
w 164 163 -146 1
w 164 -163 146 0
w 164 -163 -146 0
w 165 164 147 0.0404725
w 165 164 -147 0.136484
w 165 -164 147 0.831606
w 165 -164 -147 0.318291
w 166 165 148 1
w 166 165 -148 1
w 166 -165 148 1
w 166 -165 -148 0
w 167 166 149 0.398681
w 167 166 -149 0.637658
w 167 -166 149 0.659558
w 167 -166 -149 0.312173
w 168 167 150 1
w 168 167 -150 0
w 168 -167 150 1
w 168 -167 -150 0
w 169 168 151 0.719931
w 169 168 -151 0.209925
w 169 -168 151 0.217307
w 169 -168 -151 0.767605
w 170 169 152 1
w 170 169 -152 1
w 170 -169 152 0
w 170 -169 -152 0
w 171 170 153 0.414103
w 171 170 -153 0.942177
w 171 -170 153 0.819456
w 171 -170 -153 0.245709
w 172 171 154 0
w 172 171 -154 1
w 172 -171 154 1
w 172 -171 -154 0
w 173 172 155 0.697401
w 173 172 -155 0.556799
w 173 -172 155 0.621615
w 173 -172 -155 0.356958
w 174 173 156 0.897262
w 174 173 -156 0.781989
w 174 -173 156 0.422163
w 174 -173 -156 0.911824
w 175 174 157 0.36861
w 175 174 -157 0.631756
w 175 -174 157 0.0708215
w 175 -174 -157 0.585917
w 176 175 158 1
w 176 175 -158 1
w 176 -175 158 1
w 176 -175 -158 0
w 177 176 159 1
w 177 176 -159 0
w 177 -176 159 0
w 177 -176 -159 0
w 178 177 160 0.265428
w 178 177 -160 0.081305
w 178 -177 160 0.29868
w 178 -177 -160 0.0548801
w 179 178 161 1
w 179 178 -161 0
w 179 -178 161 0
w 179 -178 -161 1
w 180 179 162 1
w 180 179 -162 0
w 180 -179 162 1
w 180 -179 -162 1
w 181 163 0.455968
w 181 -163 0.345093
w 182 181 164 0.0418851
w 182 181 -164 0.744454
w 182 -181 164 0.181776
w 182 -181 -164 0.202963
w 183 182 165 0
w 183 182 -165 1
w 183 -182 165 1
w 183 -182 -165 0
w 184 183 166 0
w 184 183 -166 0
w 184 -183 166 1
w 184 -183 -166 1
w 185 184 167 0.591015
w 185 184 -167 0.312358
w 185 -184 167 0.215576
w 185 -184 -167 0.343295
w 186 185 168 0
w 186 185 -168 0
w 186 -185 168 1
w 186 -185 -168 1
w 187 186 169 1
w 187 186 -169 0
w 187 -186 169 1
w 187 -186 -169 1
w 188 187 170 0.358987
w 188 187 -170 0.724226
w 188 -187 170 0.10061
w 188 -187 -170 0.56195
w 189 188 171 1
w 189 188 -171 0
w 189 -188 171 0
w 189 -188 -171 1
w 190 189 172 0
w 190 189 -172 0
w 190 -189 172 1
w 190 -189 -172 1
w 191 190 173 0.225551
w 191 190 -173 0.334809
w 191 -190 173 0.0396082
w 191 -190 -173 0.568847
w 192 191 174 1
w 192 191 -174 1
w 192 -191 174 1
w 192 -191 -174 0
w 193 192 175 0
w 193 192 -175 1
w 193 -192 175 0
w 193 -192 -175 1
w 194 193 176 0.379865
w 194 193 -176 0.754387
w 194 -193 176 0.419454
w 194 -193 -176 0.480476
w 195 194 177 0
w 195 194 -177 1
w 195 -194 177 1
w 195 -194 -177 0
w 196 195 178 1
w 196 195 -178 1
w 196 -195 178 1
w 196 -195 -178 0
w 197 196 179 0.861009
w 197 196 -179 0.102524
w 197 -196 179 0.840051
w 197 -196 -179 0.900618
w 198 197 180 0.28344
w 198 197 -180 0.0600537
w 198 -197 180 0.692752
w 198 -197 -180 0.500605
w 199 181 1
w 199 -181 0
w 200 199 182 0.856286
w 200 199 -182 0.518927
w 200 -199 182 0.974304
w 200 -199 -182 0.551514
w 201 200 183 0.728691
w 201 200 -183 0.970967
w 201 -200 183 0.379269
w 201 -200 -183 0.0450279
w 202 201 184 0.26832
w 202 201 -184 0.189061
w 202 -201 184 0.0796391
w 202 -201 -184 0.414205
w 203 202 185 0
w 203 202 -185 1
w 203 -202 185 0
w 203 -202 -185 0
w 204 203 186 1
w 204 203 -186 0
w 204 -203 186 0
w 204 -203 -186 0
w 205 204 187 1
w 205 204 -187 1
w 205 -204 187 0
w 205 -204 -187 1
w 206 205 188 0.270674
w 206 205 -188 0.26998
w 206 -205 188 0.351939
w 206 -205 -188 0.244977
w 207 206 189 0.250732
w 207 206 -189 0.973668
w 207 -206 189 0.792462
w 207 -206 -189 0.63
w 208 207 190 0
w 208 207 -190 1
w 208 -207 190 1
w 208 -207 -190 1
w 209 208 191 1
w 209 208 -191 1
w 209 -208 191 0
w 209 -208 -191 1
w 210 209 192 0
w 210 209 -192 0
w 210 -209 192 0
w 210 -209 -192 1
w 211 210 193 0.216194
w 211 210 -193 0.839227
w 211 -210 193 0.975268
w 211 -210 -193 0.0492055
w 212 211 194 0
w 212 211 -194 1
w 212 -211 194 0
w 212 -211 -194 0
w 213 212 195 0
w 213 212 -195 1
w 213 -212 195 1
w 213 -212 -195 0
w 214 213 196 0
w 214 213 -196 0
w 214 -213 196 1
w 214 -213 -196 1
w 215 214 197 0.25643
w 215 214 -197 0.141976
w 215 -214 197 0.64595
w 215 -214 -197 0.332331
w 216 215 198 0.602242
w 216 215 -198 0.621041
w 216 -215 198 0.941771
w 216 -215 -198 0.749699
w 217 199 0
w 217 -199 1
w 218 217 200 0.157883
w 218 217 -200 0.207171
w 218 -217 200 0.698827
w 218 -217 -200 0.403131
w 219 218 201 0.0537056
w 219 218 -201 0.469874
w 219 -218 201 0.260191
w 219 -218 -201 0.382252
w 220 219 202 1
w 220 219 -202 0
w 220 -219 202 1
w 220 -219 -202 1
w 221 220 203 1
w 221 220 -203 0
w 221 -220 203 0
w 221 -220 -203 0
w 222 221 204 0
w 222 221 -204 0
w 222 -221 204 1
w 222 -221 -204 1
w 223 222 205 0.424787
w 223 222 -205 0.063188
w 223 -222 205 0.738867
w 223 -222 -205 0.607401
w 224 223 206 1
w 224 223 -206 0
w 224 -223 206 1
w 224 -223 -206 0
w 225 224 207 0
w 225 224 -207 1
w 225 -224 207 1
w 225 -224 -207 1
w 226 225 208 0.838896
w 226 225 -208 0.192074
w 226 -225 208 0.494473
w 226 -225 -208 0.561158
w 227 226 209 0
w 227 226 -209 0
w 227 -226 209 1
w 227 -226 -209 0
w 228 227 210 1
w 228 227 -210 0
w 228 -227 210 0
w 228 -227 -210 0
w 229 228 211 0.476091
w 229 228 -211 0.760648
w 229 -228 211 0.494007
w 229 -228 -211 0.083492
w 230 229 212 0.821801
w 230 229 -212 0.848776
w 230 -229 212 0.410125
w 230 -229 -212 0.848422
w 231 230 213 1
w 231 230 -213 0
w 231 -230 213 0
w 231 -230 -213 1
w 232 231 214 0
w 232 231 -214 1
w 232 -231 214 1
w 232 -231 -214 1
w 233 232 215 0
w 233 232 -215 1
w 233 -232 215 1
w 233 -232 -215 1
w 234 233 216 0
w 234 233 -216 1
w 234 -233 216 0
w 234 -233 -216 0
w 235 217 0.694743
w 235 -217 0.0494384
w 236 235 218 0
w 236 235 -218 0
w 236 -235 218 1
w 236 -235 -218 0
w 237 236 219 1
w 237 236 -219 1
w 237 -236 219 0
w 237 -236 -219 1
w 238 237 220 1
w 238 237 -220 0
w 238 -237 220 0
w 238 -237 -220 0
w 239 238 221 0.0398545
w 239 238 -221 0.357854
w 239 -238 221 0.783221
w 239 -238 -221 0.795244
w 240 239 222 0
w 240 239 -222 1
w 240 -239 222 0
w 240 -239 -222 0
w 241 240 223 0.663644
w 241 240 -223 0.678631
w 241 -240 223 0.485627
w 241 -240 -223 0.358387
w 242 241 224 0.635178
w 242 241 -224 0.136622
w 242 -241 224 0.759309
w 242 -241 -224 0.60653
w 243 242 225 0.200673
w 243 242 -225 0.426303
w 243 -242 225 0.407836
w 243 -242 -225 0.0888
w 244 243 226 0
w 244 243 -226 1
w 244 -243 226 1
w 244 -243 -226 0
w 245 244 227 0.0379256
w 245 244 -227 0.669907
w 245 -244 227 0.292582
w 245 -244 -227 0.821147
w 246 245 228 1
w 246 245 -228 1
w 246 -245 228 1
w 246 -245 -228 0
w 247 246 229 1
w 247 246 -229 0
w 247 -246 229 1
w 247 -246 -229 0
w 248 247 230 0
w 248 247 -230 0
w 248 -247 230 1
w 248 -247 -230 0
w 249 248 231 0.376178
w 249 248 -231 0.37855
w 249 -248 231 0.345342
w 249 -248 -231 0.464978
w 250 249 232 0.0528624
w 250 249 -232 0.185498
w 250 -249 232 0.86805
w 250 -249 -232 0.682915
w 251 250 233 0
w 251 250 -233 1
w 251 -250 233 1
w 251 -250 -233 1
w 252 251 234 0.983033
w 252 251 -234 0.34678
w 252 -251 234 0.212803
w 252 -251 -234 0.99825
w 253 235 0
w 253 -235 1
w 254 253 236 0.0444039
w 254 253 -236 0.148254
w 254 -253 236 0.714362
w 254 -253 -236 0.460601
w 255 254 237 1
w 255 254 -237 1
w 255 -254 237 1
w 255 -254 -237 0
w 256 255 238 0
w 256 255 -238 0
w 256 -255 238 1
w 256 -255 -238 0
w 257 256 239 0
w 257 256 -239 1
w 257 -256 239 0
w 257 -256 -239 0
w 258 257 240 1
w 258 257 -240 0
w 258 -257 240 1
w 258 -257 -240 1
w 259 258 241 0
w 259 258 -241 0
w 259 -258 241 0
w 259 -258 -241 1
w 260 259 242 0.854189
w 260 259 -242 0.626753
w 260 -259 242 0.876427
w 260 -259 -242 0.568552
w 261 260 243 0
w 261 260 -243 0
w 261 -260 243 1
w 261 -260 -243 0
w 262 261 244 0
w 262 261 -244 0
w 262 -261 244 1
w 262 -261 -244 1
w 263 262 245 0
w 263 262 -245 1
w 263 -262 245 1
w 263 -262 -245 0
w 264 263 246 0.417893
w 264 263 -246 0.844094
w 264 -263 246 0.85455
w 264 -263 -246 0.297186
w 265 264 247 0.0333764
w 265 264 -247 0.523259
w 265 -264 247 0.212208
w 265 -264 -247 0.210453
w 266 265 248 1
w 266 265 -248 0
w 266 -265 248 0
w 266 -265 -248 0
w 267 266 249 0.819715
w 267 266 -249 0.187206
w 267 -266 249 0.0899804
w 267 -266 -249 0.543175
w 268 267 250 0
w 268 267 -250 1
w 268 -267 250 1
w 268 -267 -250 1
w 269 268 251 1
w 269 268 -251 1
w 269 -268 251 0
w 269 -268 -251 0
w 270 269 252 0
w 270 269 -252 1
w 270 -269 252 1
w 270 -269 -252 0
w 271 253 0.853924
w 271 -253 0.914381
w 272 271 254 0
w 272 271 -254 0
w 272 -271 254 0
w 272 -271 -254 1
w 273 272 255 1
w 273 272 -255 1
w 273 -272 255 0
w 273 -272 -255 0
w 274 273 256 0
w 274 273 -256 0
w 274 -273 256 1
w 274 -273 -256 0
w 275 274 257 0.659556
w 275 274 -257 0.111273
w 275 -274 257 0.140501
w 275 -274 -257 0.324289
w 276 275 258 0.508199
w 276 275 -258 0.254745
w 276 -275 258 0.70302
w 276 -275 -258 0.534654
w 277 276 259 0.635194
w 277 276 -259 0.415658
w 277 -276 259 0.248627
w 277 -276 -259 0.489118
w 278 277 260 0
w 278 277 -260 1
w 278 -277 260 1
w 278 -277 -260 1
w 279 278 261 0.644349
w 279 278 -261 0.698583
w 279 -278 261 0.385087
w 279 -278 -261 0.46702
w 280 279 262 0.395616
w 280 279 -262 0.379672
w 280 -279 262 0.894713
w 280 -279 -262 0.409966
w 281 280 263 0.543286
w 281 280 -263 0.069522
w 281 -280 263 0.776103
w 281 -280 -263 0.683787
w 282 281 264 1
w 282 281 -264 0
w 282 -281 264 0
w 282 -281 -264 0
w 283 282 265 0.251649
w 283 282 -265 0.729257
w 283 -282 265 0.142298
w 283 -282 -265 0.500276
w 284 283 266 1
w 284 283 -266 1
w 284 -283 266 1
w 284 -283 -266 0
w 285 284 267 0.33539
w 285 284 -267 0.571559
w 285 -284 267 0.3081
w 285 -284 -267 0.720477
w 286 285 268 0
w 286 285 -268 0
w 286 -285 268 1
w 286 -285 -268 0
w 287 286 269 0
w 287 286 -269 1
w 287 -286 269 0
w 287 -286 -269 0
w 288 287 270 0.250228
w 288 287 -270 0.146933
w 288 -287 270 0.637949
w 288 -287 -270 0.34429
w 289 271 0.889597
w 289 -271 0.0735471
w 290 289 272 1
w 290 289 -272 1
w 290 -289 272 1
w 290 -289 -272 0
w 291 290 273 1
w 291 290 -273 0
w 291 -290 273 0
w 291 -290 -273 1
w 292 291 274 0
w 292 291 -274 0
w 292 -291 274 0
w 292 -291 -274 1
w 293 292 275 0
w 293 292 -275 1
w 293 -292 275 1
w 293 -292 -275 1
w 294 293 276 1
w 294 293 -276 1
w 294 -293 276 0
w 294 -293 -276 1
w 295 294 277 0.98059
w 295 294 -277 0.0328339
w 295 -294 277 0.876088
w 295 -294 -277 0.0541375
w 296 295 278 0
w 296 295 -278 0
w 296 -295 278 1
w 296 -295 -278 0
w 297 296 279 0.490616
w 297 296 -279 0.812543
w 297 -296 279 0.939307
w 297 -296 -279 0.715803
w 298 297 280 0.964862
w 298 297 -280 0.774151
w 298 -297 280 0.171466
w 298 -297 -280 0.408669
w 299 298 281 0.935033
w 299 298 -281 0.935557
w 299 -298 281 0.617753
w 299 -298 -281 0.294182
w 300 299 282 1
w 300 299 -282 0
w 300 -299 282 1
w 300 -299 -282 1
w 301 300 283 0.93852
w 301 300 -283 0.822175
w 301 -300 283 0.505301
w 301 -300 -283 0.992657
w 302 301 284 0.771262
w 302 301 -284 0.338716
w 302 -301 284 0.407794
w 302 -301 -284 0.344792
w 303 302 285 0.360125
w 303 302 -285 0.835408
w 303 -302 285 0.562866
w 303 -302 -285 0.299432
w 304 303 286 0.496824
w 304 303 -286 0.264295
w 304 -303 286 0.325363
w 304 -303 -286 0.66829
w 305 304 287 0.885735
w 305 304 -287 0.603323
w 305 -304 287 0.608521
w 305 -304 -287 0.503488
w 306 305 288 0.93015
w 306 305 -288 0.133569
w 306 -305 288 0.540228
w 306 -305 -288 0.888079
w 307 289 0.169442
w 307 -289 0.826599
w 308 307 290 0.674743
w 308 307 -290 0.819256
w 308 -307 290 0.615966
w 308 -307 -290 0.446004
w 309 308 291 0
w 309 308 -291 1
w 309 -308 291 0
w 309 -308 -291 1
w 310 309 292 0.471162
w 310 309 -292 0.683318
w 310 -309 292 0.177417
w 310 -309 -292 0.967986
w 311 310 293 0.502779
w 311 310 -293 0.636276
w 311 -310 293 0.620576
w 311 -310 -293 0.388514
w 312 311 294 0
w 312 311 -294 1
w 312 -311 294 0
w 312 -311 -294 1
w 313 312 295 0
w 313 312 -295 1
w 313 -312 295 1
w 313 -312 -295 1
w 314 313 296 0.693567
w 314 313 -296 0.521516
w 314 -313 296 0.693181
w 314 -313 -296 0.309533
w 315 314 297 0.851154
w 315 314 -297 0.333293
w 315 -314 297 0.758317
w 315 -314 -297 0.759449
w 316 315 298 0.384522
w 316 315 -298 0.230611
w 316 -315 298 0.400495
w 316 -315 -298 0.561939
w 317 316 299 0
w 317 316 -299 1
w 317 -316 299 0
w 317 -316 -299 1
w 318 317 300 1
w 318 317 -300 1
w 318 -317 300 0
w 318 -317 -300 1
w 319 318 301 0
w 319 318 -301 0
w 319 -318 301 1
w 319 -318 -301 0
w 320 319 302 0.278278
w 320 319 -302 0.0128533
w 320 -319 302 0.257198
w 320 -319 -302 0.971459
w 321 320 303 1
w 321 320 -303 0
w 321 -320 303 1
w 321 -320 -303 1
w 322 321 304 0.372856
w 322 321 -304 0.367559
w 322 -321 304 0.812673
w 322 -321 -304 0.773351
w 323 322 305 0.0112702
w 323 322 -305 0.121459
w 323 -322 305 0.994216
w 323 -322 -305 0.846143
w 324 323 306 0
w 324 323 -306 0
w 324 -323 306 0
w 324 -323 -306 1